
  22    4
  10   10   10   10

   0   0   0   0   0   5 2 3 4 5 7 
   5  10  10  10  10   6 17 16 10 9 8 6 
   1  10  10  10  10   7 17 16 13 12 11 10 9 
   9  10  10  10  10   4 17 16 9 6 
   5  10  10  10  10   4 13 10 9 8 
   2  10  10  10  10   5 15 14 13 12 11 
   9  10  10  10  10   2 11 8 
   5  10  10  10  10   4 21 15 14 12 
   4  10  10  10  10   3 20 19 15 
   7  10  10  10  10   3 20 19 14 
   2  10  10  10  10   3 21 20 19 
   2  10  10  10  10   2 19 18 
   7  10  10  10  10   2 20 18 
   6  10  10  10  10   1 18 
   9  10  10  10  10   1 18 
   8  10  10  10  10   1 21 
   9  10  10  10  10   1 18 
   3  10  10  10  10   1 22
   4  10  10  10  10   1 22
   6  10  10  10  10   1 22
   8  10  10  10  10   1 22
   0   0   0   0   0   0 
